(set-info :Origin "This instance was generated by: BanditFuzz-- an RL fuzzer for SMT solvers" )
(set-info :Author "Joe Scott, Fed Mora, Vijay Ganesh" )
(set-info :Contact "Joe Scott, joseph.scott@uwaterloo.ca")
; solvers/z3.sh
; 	time => 2.122912883758545
; 	answer => unsat
; solvers/bitwuzla.sh
; 	time => 0.1100916862487793
; 	answer => unsat
; solvers/cvc4.sh
; 	time => 0.09787344932556152
; 	answer => err
(set-logic QF_BV)
(declare-const bool_0 Bool)
(declare-const bool_1 Bool)
(declare-const bool_2 Bool)
(declare-const bool_3 Bool)
(declare-const bool_4 Bool)
(declare-const bv_0 (_ BitVec 32))
(declare-const bv_1 (_ BitVec 32))
(declare-const bv_2 (_ BitVec 32))
(declare-const bv_3 (_ BitVec 32))
(declare-const bv_4 (_ BitVec 32))
(assert (bvule (bvand (bvxnor #x9307ee5f  #xf6fb8489 ) (bvand bv_0 bv_4)) (bvudiv (bvurem bv_2 bv_2) (bvlshr #x546e2a73  #x7436ed76 ))))
(assert (bvsle (bvsub (bvurem #x831d7b8b  bv_4) (bvsdiv #xa5a37a27  #xdfd666a7 )) (bvsdiv (bvsub bv_2 bv_3) (bvsdiv bv_0 bv_4))))
(assert (bvsge (bvand (bvadd #x500175bc  bv_4) (bvnand #x617a1472  bv_2)) (bvurem (bvsmod #x0ec2325c  bv_3) (bvor #x55449767  bv_0))))
(assert (bvugt (bvshl (bvsmod bv_1 bv_1) (bvor bv_4 bv_0)) (bvsdiv (bvxnor #x79a454de  #x6b2860b1 ) (bvudiv bv_1 #x0a071e29 ))))
(assert (bvuge (bvor (bvurem #xe0331f4a  bv_1) (bvurem #x4b2c474d  bv_3)) (bvsmod (bvurem bv_3 #xe2ca602b ) (bvxor #x994158cf  #x1672bc0b ))))
(check-sat)
(exit)
